17	4
21	20	15	12	
0	0	0	0	0	3	2	3	4	
1	0	6	0	0	3	9	11	17	
9	9	4	9	3	2	5	8	
4	4	1	7	9	2	6	12	
10	0	0	7	0	1	7	
250	2	8	0	4	3	17	17	17	
175	10	4	2	0	3	10	17	17	
50	0	0	0	5	1	16	
125	4	10	0	0	1	15	
175	0	0	10	0	1	17	
200	8	4	0	0	2	14	17	
225	0	0	0	2	3	13	14	17	
7	0	0	0	2	1	17	
3	0	7	0	0	1	17	
10	2	0	2	0	1	17	
3	0	6	0	0	1	17	
0	0	0	0	0	0	
